18 4
89 56 31 44 26 45 36 25 94 66 41 75 61 53 71 81 59 57
85 38 45 20 17 36 37 12 81 73 35 95 67 41 71 94 42 56
114 41 42 25 29 41 43 13 86 65 33 93 56 54 56 86 40 67
94 52 20 23 25 44 36 24 83 45 34 88 61 59 75 81 46 68
